(set-info :smt-lib-version 2.6)
(set-logic UF)
(set-info :source |Benchmarks from the paper: "Extending Sledgehammer with SMT Solvers" by Jasmin Blanchette, Sascha Bohme, and Lawrence C. Paulson, CADE 2011.  Translated to SMT2 by Andrew Reynolds and Morgan Deters.|)
(set-info :category "industrial")
(set-info :status unknown)
(declare-sort S1 0)
(declare-sort S2 0)
(declare-sort S3 0)
(declare-sort S4 0)
(declare-sort S5 0)
(declare-sort S6 0)
(declare-sort S7 0)
(declare-sort S8 0)
(declare-sort S9 0)
(declare-sort S10 0)
(declare-sort S11 0)
(declare-sort S12 0)
(declare-sort S13 0)
(declare-sort S14 0)
(declare-sort S15 0)
(declare-sort S16 0)
(declare-sort S17 0)
(declare-sort S18 0)
(declare-sort S19 0)
(declare-sort S20 0)
(declare-sort S21 0)
(declare-sort S22 0)
(declare-sort S23 0)
(declare-sort S24 0)
(declare-sort S25 0)
(declare-sort S26 0)
(declare-sort S27 0)
(declare-sort S28 0)
(declare-sort S29 0)
(declare-sort S30 0)
(declare-sort S31 0)
(declare-sort S32 0)
(declare-sort S33 0)
(declare-sort S34 0)
(declare-sort S35 0)
(declare-sort S36 0)
(declare-sort S37 0)
(declare-sort S38 0)
(declare-sort S39 0)
(declare-sort S40 0)
(declare-sort S41 0)
(declare-sort S42 0)
(declare-sort S43 0)
(declare-sort S44 0)
(declare-sort S45 0)
(declare-sort S46 0)
(declare-sort S47 0)
(declare-sort S48 0)
(declare-sort S49 0)
(declare-sort S50 0)
(declare-sort S51 0)
(declare-sort S52 0)
(declare-sort S53 0)
(declare-sort S54 0)
(declare-sort S55 0)
(declare-sort S56 0)
(declare-sort S57 0)
(declare-sort S58 0)
(declare-sort S59 0)
(declare-sort S60 0)
(declare-sort S61 0)
(declare-sort S62 0)
(declare-sort S63 0)
(declare-sort S64 0)
(declare-sort S65 0)
(declare-sort S66 0)
(declare-sort S67 0)
(declare-sort S68 0)
(declare-sort S69 0)
(declare-sort S70 0)
(declare-sort S71 0)
(declare-sort S72 0)
(declare-sort S73 0)
(declare-sort S74 0)
(declare-sort S75 0)
(declare-sort S76 0)
(declare-sort S77 0)
(declare-sort S78 0)
(declare-sort S79 0)
(declare-sort S80 0)
(declare-sort S81 0)
(declare-sort S82 0)
(declare-sort S83 0)
(declare-sort S84 0)
(declare-sort S85 0)
(declare-sort S86 0)
(declare-sort S87 0)
(declare-sort S88 0)
(declare-sort S89 0)
(declare-sort S90 0)
(declare-sort S91 0)
(declare-sort S92 0)
(declare-sort S93 0)
(declare-sort S94 0)
(declare-sort S95 0)
(declare-sort S96 0)
(declare-sort S97 0)
(declare-sort S98 0)
(declare-sort S99 0)
(declare-sort S100 0)
(declare-sort S101 0)
(declare-sort S102 0)
(declare-fun f1 () S1)
(declare-fun f2 () S1)
(declare-fun f3 (S3 S2) S1)
(declare-fun f4 () S3)
(declare-fun f5 (S2 S3) S1)
(declare-fun f6 (S4) S3)
(declare-fun f7 () S4)
(declare-fun f8 (S5 S6) S3)
(declare-fun f9 (S7 S6) S5)
(declare-fun f10 (S8) S7)
(declare-fun f11 () S8)
(declare-fun f12 () S6)
(declare-fun f13 (S9 S11) S1)
(declare-fun f14 (S12 S10) S9)
(declare-fun f15 (S9) S12)
(declare-fun f16 (S11 S9) S1)
(declare-fun f17 (S10) S9)
(declare-fun f18 (S13 S4) S3)
(declare-fun f19 (S3) S13)
(declare-fun f20 (S14 S16) S1)
(declare-fun f21 (S17 S15) S14)
(declare-fun f22 (S14) S17)
(declare-fun f23 (S16 S14) S1)
(declare-fun f24 (S15) S14)
(declare-fun f25 (S18 S15) S1)
(declare-fun f26 (S20 S19) S18)
(declare-fun f27 (S18) S20)
(declare-fun f28 (S15 S18) S1)
(declare-fun f29 (S19) S18)
(declare-fun f30 (S21 S23) S1)
(declare-fun f31 (S24 S22) S21)
(declare-fun f32 (S21) S24)
(declare-fun f33 (S23 S21) S1)
(declare-fun f34 (S22) S21)
(declare-fun f35 (S25 S9) S9)
(declare-fun f36 (S9) S25)
(declare-fun f37 (S26 S3) S3)
(declare-fun f38 (S3) S26)
(declare-fun f39 (S27 S14) S14)
(declare-fun f40 (S14) S27)
(declare-fun f41 (S28 S18) S18)
(declare-fun f42 (S18) S28)
(declare-fun f43 (S29 S21) S21)
(declare-fun f44 (S21) S29)
(declare-fun f45 (S30 S22) S1)
(declare-fun f46 (S8 S23) S30)
(declare-fun f47 (S6 S23) S8)
(declare-fun f48 (S2 S22) S1)
(declare-fun f49 () S2)
(declare-fun f50 (S31 S22) S22)
(declare-fun f51 (S32 S23) S31)
(declare-fun f52 () S32)
(declare-fun f53 (S33 S23) S23)
(declare-fun f54 (S34 S23) S33)
(declare-fun f55 () S34)
(declare-fun f56 () S23)
(declare-fun f57 (S35 S22) S23)
(declare-fun f58 () S35)
(declare-fun f59 (S36 S4) S22)
(declare-fun f60 (S37 S38) S36)
(declare-fun f61 () S37)
(declare-fun f62 () S38)
(declare-fun f63 (S39 S4) S4)
(declare-fun f64 (S40 S3) S39)
(declare-fun f65 () S40)
(declare-fun f66 () S22)
(declare-fun f67 (S3) S3)
(declare-fun f68 (S38 S2) S23)
(declare-fun f69 () S38)
(declare-fun f70 () S23)
(declare-fun f71 () S23)
(declare-fun f72 (S41 S4) S10)
(declare-fun f73 () S41)
(declare-fun f74 () S10)
(declare-fun f75 (S42 S2) S39)
(declare-fun f76 () S42)
(declare-fun f77 (S43 S15) S15)
(declare-fun f78 (S44 S14) S43)
(declare-fun f79 () S44)
(declare-fun f80 (S45 S16) S43)
(declare-fun f81 () S45)
(declare-fun f82 (S46 S19) S19)
(declare-fun f83 (S47 S18) S46)
(declare-fun f84 () S47)
(declare-fun f85 (S48 S15) S46)
(declare-fun f86 () S48)
(declare-fun f87 (S49 S21) S31)
(declare-fun f88 () S49)
(declare-fun f89 (S50 S10) S10)
(declare-fun f90 (S51 S9) S50)
(declare-fun f91 () S51)
(declare-fun f92 (S52 S11) S50)
(declare-fun f93 () S52)
(declare-fun f94 (S54 S10) S15)
(declare-fun f95 (S55 S53) S54)
(declare-fun f96 () S55)
(declare-fun f97 (S53 S11) S16)
(declare-fun f98 (S57 S4) S15)
(declare-fun f99 (S58 S56) S57)
(declare-fun f100 () S58)
(declare-fun f101 (S56 S2) S16)
(declare-fun f102 (S60 S10) S19)
(declare-fun f103 (S61 S59) S60)
(declare-fun f104 () S61)
(declare-fun f105 (S59 S11) S15)
(declare-fun f106 (S63 S4) S19)
(declare-fun f107 (S64 S62) S63)
(declare-fun f108 () S64)
(declare-fun f109 (S62 S2) S15)
(declare-fun f110 (S66 S10) S22)
(declare-fun f111 (S67 S65) S66)
(declare-fun f112 () S67)
(declare-fun f113 (S65 S11) S23)
(declare-fun f114 (S69 S15) S10)
(declare-fun f115 (S70 S68) S69)
(declare-fun f116 () S70)
(declare-fun f117 (S68 S16) S11)
(declare-fun f118 (S72 S15) S4)
(declare-fun f119 (S73 S71) S72)
(declare-fun f120 () S73)
(declare-fun f121 (S71 S16) S2)
(declare-fun f122 (S75 S19) S10)
(declare-fun f123 (S76 S74) S75)
(declare-fun f124 () S76)
(declare-fun f125 (S74 S15) S11)
(declare-fun f126 (S78 S19) S4)
(declare-fun f127 (S79 S77) S78)
(declare-fun f128 () S79)
(declare-fun f129 (S77 S15) S2)
(declare-fun f130 (S81 S22) S10)
(declare-fun f131 (S82 S80) S81)
(declare-fun f132 () S82)
(declare-fun f133 (S80 S23) S11)
(declare-fun f134 (S84 S22) S4)
(declare-fun f135 (S85 S83) S84)
(declare-fun f136 () S85)
(declare-fun f137 (S83 S23) S2)
(declare-fun f138 (S87 S22) S15)
(declare-fun f139 (S88 S86) S87)
(declare-fun f140 () S88)
(declare-fun f141 (S86 S23) S16)
(declare-fun f142 (S90 S22) S19)
(declare-fun f143 (S91 S89) S90)
(declare-fun f144 () S91)
(declare-fun f145 (S89 S23) S15)
(declare-fun f146 (S93 S92) S41)
(declare-fun f147 () S93)
(declare-fun f148 (S92 S2) S11)
(declare-fun f149 (S95 S15) S22)
(declare-fun f150 (S96 S94) S95)
(declare-fun f151 () S96)
(declare-fun f152 (S94 S16) S23)
(declare-fun f153 (S98 S19) S22)
(declare-fun f154 (S99 S97) S98)
(declare-fun f155 () S99)
(declare-fun f156 (S97 S15) S23)
(declare-fun f157 (S101 S10) S4)
(declare-fun f158 (S102 S100) S101)
(declare-fun f159 () S102)
(declare-fun f160 (S100 S11) S2)
(declare-fun f161 () S4)
(declare-fun f162 () S19)
(declare-fun f163 () S15)
(declare-fun f164 () S22)
(declare-fun f165 (S9) S9)
(declare-fun f166 (S21) S21)
(declare-fun f167 (S18) S18)
(declare-fun f168 (S14) S14)
(assert (not (= f1 f2)))
(assert (forall ((?v0 S2)) (= (= (f3 f4 ?v0) f1) (and (= (f5 ?v0 (f6 f7)) f1) (= (f3 (f8 (f9 (f10 f11) f12) f12) ?v0) f1)))))
(assert (forall ((?v0 S9) (?v1 S10) (?v2 S11)) (= (= (f13 (f14 (f15 ?v0) ?v1) ?v2) f1) (and (= (f16 ?v2 (f17 ?v1)) f1) (= (f13 ?v0 ?v2) f1)))))
(assert (forall ((?v0 S3) (?v1 S4) (?v2 S2)) (= (= (f3 (f18 (f19 ?v0) ?v1) ?v2) f1) (and (= (f5 ?v2 (f6 ?v1)) f1) (= (f3 ?v0 ?v2) f1)))))
(assert (forall ((?v0 S14) (?v1 S15) (?v2 S16)) (= (= (f20 (f21 (f22 ?v0) ?v1) ?v2) f1) (and (= (f23 ?v2 (f24 ?v1)) f1) (= (f20 ?v0 ?v2) f1)))))
(assert (forall ((?v0 S18) (?v1 S19) (?v2 S15)) (= (= (f25 (f26 (f27 ?v0) ?v1) ?v2) f1) (and (= (f28 ?v2 (f29 ?v1)) f1) (= (f25 ?v0 ?v2) f1)))))
(assert (forall ((?v0 S21) (?v1 S22) (?v2 S23)) (= (= (f30 (f31 (f32 ?v0) ?v1) ?v2) f1) (and (= (f33 ?v2 (f34 ?v1)) f1) (= (f30 ?v0 ?v2) f1)))))
(assert (forall ((?v0 S9) (?v1 S9) (?v2 S11)) (= (= (f13 (f35 (f36 ?v0) ?v1) ?v2) f1) (and (= (f13 ?v1 ?v2) f1) (= (f13 ?v0 ?v2) f1)))))
(assert (forall ((?v0 S3) (?v1 S3) (?v2 S2)) (= (= (f3 (f37 (f38 ?v0) ?v1) ?v2) f1) (and (= (f3 ?v1 ?v2) f1) (= (f3 ?v0 ?v2) f1)))))
(assert (forall ((?v0 S14) (?v1 S14) (?v2 S16)) (= (= (f20 (f39 (f40 ?v0) ?v1) ?v2) f1) (and (= (f20 ?v1 ?v2) f1) (= (f20 ?v0 ?v2) f1)))))
(assert (forall ((?v0 S18) (?v1 S18) (?v2 S15)) (= (= (f25 (f41 (f42 ?v0) ?v1) ?v2) f1) (and (= (f25 ?v1 ?v2) f1) (= (f25 ?v0 ?v2) f1)))))
(assert (forall ((?v0 S21) (?v1 S21) (?v2 S23)) (= (= (f30 (f43 (f44 ?v0) ?v1) ?v2) f1) (and (= (f30 ?v1 ?v2) f1) (= (f30 ?v0 ?v2) f1)))))
(assert (forall ((?v0 S23) (?v1 S23) (?v2 S22)) (= (= (f45 (f46 (f47 f12 ?v0) ?v1) ?v2) f1) true)))
(assert (forall ((?v0 S23) (?v1 S22)) (= (= (f45 (f46 f11 ?v0) ?v1) f1) false)))
(assert (not (= (= (f48 f49 (f50 (f51 f52 (f53 (f54 f55 f56) (f57 f58 (f59 (f60 f61 f62) (f63 (f64 f65 (f8 (f9 (f10 f11) f12) f12)) f7))))) f66)) f1) (= (f48 f49 (f50 (f51 f52 f56) f66)) f1))))
(assert (= (f5 f49 (f67 f4)) f1))
(assert (forall ((?v0 S2)) (=> (= (f5 ?v0 (f67 f4)) f1) (= (f68 f69 ?v0) f70))))
(assert (exists ((?v0 S23)) (forall ((?v1 S2)) (=> (= (f5 ?v1 (f6 f7)) f1) (= (f48 ?v1 (f50 (f51 f52 ?v0) f66)) f1)))))
(assert (forall ((?v0 S2)) (=> (= (f5 ?v0 (f6 f7)) f1) (= (f48 ?v0 (f50 (f51 f52 f56) f66)) f1))))
(assert (forall ((?v0 S2)) (=> (= (f5 ?v0 (f6 f7)) f1) (not (= (f68 f62 ?v0) f71)))))
(assert (=> (forall ((?v0 S23)) (=> (forall ((?v1 S2)) (=> (= (f5 ?v1 (f6 f7)) f1) (= (f48 ?v1 (f50 (f51 f52 ?v0) f66)) f1))) false)) false))
(assert (forall ((?v0 S2) (?v1 S23) (?v2 S23) (?v3 S22)) (let ((?v_0 (f68 f62 ?v0))) (=> (= (f3 (f8 (f9 (f10 f11) f12) f12) ?v0) f1) (=> (= (f68 f69 ?v0) f70) (=> (= (f53 (f54 f55 ?v1) ?v_0) (f53 (f54 f55 ?v2) ?v_0)) (= (= (f48 ?v0 (f50 (f51 f52 ?v1) ?v3)) f1) (= (f48 ?v0 (f50 (f51 f52 ?v2) ?v3)) f1))))))))
(assert (= (f72 f73 f7) f74))
(assert (forall ((?v0 S3) (?v1 S2) (?v2 S4)) (let ((?v_1 (f64 f65 ?v0)) (?v_0 (f75 f76 ?v1))) (let ((?v_2 (f63 ?v_1 ?v2))) (= (f63 ?v_1 (f63 ?v_0 ?v2)) (ite (= (f3 ?v0 ?v1) f1) (f63 ?v_0 ?v_2) ?v_2))))))
(assert (forall ((?v0 S14) (?v1 S16) (?v2 S15)) (let ((?v_1 (f78 f79 ?v0)) (?v_0 (f80 f81 ?v1))) (let ((?v_2 (f77 ?v_1 ?v2))) (= (f77 ?v_1 (f77 ?v_0 ?v2)) (ite (= (f20 ?v0 ?v1) f1) (f77 ?v_0 ?v_2) ?v_2))))))
(assert (forall ((?v0 S18) (?v1 S15) (?v2 S19)) (let ((?v_1 (f83 f84 ?v0)) (?v_0 (f85 f86 ?v1))) (let ((?v_2 (f82 ?v_1 ?v2))) (= (f82 ?v_1 (f82 ?v_0 ?v2)) (ite (= (f25 ?v0 ?v1) f1) (f82 ?v_0 ?v_2) ?v_2))))))
(assert (forall ((?v0 S21) (?v1 S23) (?v2 S22)) (let ((?v_1 (f87 f88 ?v0)) (?v_0 (f51 f52 ?v1))) (let ((?v_2 (f50 ?v_1 ?v2))) (= (f50 ?v_1 (f50 ?v_0 ?v2)) (ite (= (f30 ?v0 ?v1) f1) (f50 ?v_0 ?v_2) ?v_2))))))
(assert (forall ((?v0 S9) (?v1 S11) (?v2 S10)) (let ((?v_1 (f90 f91 ?v0)) (?v_0 (f92 f93 ?v1))) (let ((?v_2 (f89 ?v_1 ?v2))) (= (f89 ?v_1 (f89 ?v_0 ?v2)) (ite (= (f13 ?v0 ?v1) f1) (f89 ?v_0 ?v_2) ?v_2))))))
(assert (forall ((?v0 S38) (?v1 S2) (?v2 S4)) (let ((?v_0 (f60 f61 ?v0))) (= (f59 ?v_0 (f63 (f75 f76 ?v1) ?v2)) (f50 (f51 f52 (f68 ?v0 ?v1)) (f59 ?v_0 ?v2))))))
(assert (forall ((?v0 S53) (?v1 S11) (?v2 S10)) (let ((?v_0 (f95 f96 ?v0))) (= (f94 ?v_0 (f89 (f92 f93 ?v1) ?v2)) (f77 (f80 f81 (f97 ?v0 ?v1)) (f94 ?v_0 ?v2))))))
(assert (forall ((?v0 S56) (?v1 S2) (?v2 S4)) (let ((?v_0 (f99 f100 ?v0))) (= (f98 ?v_0 (f63 (f75 f76 ?v1) ?v2)) (f77 (f80 f81 (f101 ?v0 ?v1)) (f98 ?v_0 ?v2))))))
(assert (forall ((?v0 S59) (?v1 S11) (?v2 S10)) (let ((?v_0 (f103 f104 ?v0))) (= (f102 ?v_0 (f89 (f92 f93 ?v1) ?v2)) (f82 (f85 f86 (f105 ?v0 ?v1)) (f102 ?v_0 ?v2))))))
(assert (forall ((?v0 S62) (?v1 S2) (?v2 S4)) (let ((?v_0 (f107 f108 ?v0))) (= (f106 ?v_0 (f63 (f75 f76 ?v1) ?v2)) (f82 (f85 f86 (f109 ?v0 ?v1)) (f106 ?v_0 ?v2))))))
(assert (forall ((?v0 S65) (?v1 S11) (?v2 S10)) (let ((?v_0 (f111 f112 ?v0))) (= (f110 ?v_0 (f89 (f92 f93 ?v1) ?v2)) (f50 (f51 f52 (f113 ?v0 ?v1)) (f110 ?v_0 ?v2))))))
(assert (forall ((?v0 S68) (?v1 S16) (?v2 S15)) (let ((?v_0 (f115 f116 ?v0))) (= (f114 ?v_0 (f77 (f80 f81 ?v1) ?v2)) (f89 (f92 f93 (f117 ?v0 ?v1)) (f114 ?v_0 ?v2))))))
(assert (forall ((?v0 S71) (?v1 S16) (?v2 S15)) (let ((?v_0 (f119 f120 ?v0))) (= (f118 ?v_0 (f77 (f80 f81 ?v1) ?v2)) (f63 (f75 f76 (f121 ?v0 ?v1)) (f118 ?v_0 ?v2))))))
(assert (forall ((?v0 S74) (?v1 S15) (?v2 S19)) (let ((?v_0 (f123 f124 ?v0))) (= (f122 ?v_0 (f82 (f85 f86 ?v1) ?v2)) (f89 (f92 f93 (f125 ?v0 ?v1)) (f122 ?v_0 ?v2))))))
(assert (forall ((?v0 S77) (?v1 S15) (?v2 S19)) (let ((?v_0 (f127 f128 ?v0))) (= (f126 ?v_0 (f82 (f85 f86 ?v1) ?v2)) (f63 (f75 f76 (f129 ?v0 ?v1)) (f126 ?v_0 ?v2))))))
(assert (forall ((?v0 S80) (?v1 S23) (?v2 S22)) (let ((?v_0 (f131 f132 ?v0))) (= (f130 ?v_0 (f50 (f51 f52 ?v1) ?v2)) (f89 (f92 f93 (f133 ?v0 ?v1)) (f130 ?v_0 ?v2))))))
(assert (forall ((?v0 S83) (?v1 S23) (?v2 S22)) (let ((?v_0 (f135 f136 ?v0))) (= (f134 ?v_0 (f50 (f51 f52 ?v1) ?v2)) (f63 (f75 f76 (f137 ?v0 ?v1)) (f134 ?v_0 ?v2))))))
(assert (forall ((?v0 S86) (?v1 S23) (?v2 S22)) (let ((?v_0 (f139 f140 ?v0))) (= (f138 ?v_0 (f50 (f51 f52 ?v1) ?v2)) (f77 (f80 f81 (f141 ?v0 ?v1)) (f138 ?v_0 ?v2))))))
(assert (forall ((?v0 S89) (?v1 S23) (?v2 S22)) (let ((?v_0 (f143 f144 ?v0))) (= (f142 ?v_0 (f50 (f51 f52 ?v1) ?v2)) (f82 (f85 f86 (f145 ?v0 ?v1)) (f142 ?v_0 ?v2))))))
(assert (forall ((?v0 S92) (?v1 S2) (?v2 S4)) (let ((?v_0 (f146 f147 ?v0))) (= (f72 ?v_0 (f63 (f75 f76 ?v1) ?v2)) (f89 (f92 f93 (f148 ?v0 ?v1)) (f72 ?v_0 ?v2))))))
(assert (forall ((?v0 S94) (?v1 S16) (?v2 S15)) (let ((?v_0 (f150 f151 ?v0))) (= (f149 ?v_0 (f77 (f80 f81 ?v1) ?v2)) (f50 (f51 f52 (f152 ?v0 ?v1)) (f149 ?v_0 ?v2))))))
(assert (forall ((?v0 S97) (?v1 S15) (?v2 S19)) (let ((?v_0 (f154 f155 ?v0))) (= (f153 ?v_0 (f82 (f85 f86 ?v1) ?v2)) (f50 (f51 f52 (f156 ?v0 ?v1)) (f153 ?v_0 ?v2))))))
(assert (forall ((?v0 S100) (?v1 S11) (?v2 S10)) (let ((?v_0 (f158 f159 ?v0))) (= (f157 ?v_0 (f89 (f92 f93 ?v1) ?v2)) (f63 (f75 f76 (f160 ?v0 ?v1)) (f157 ?v_0 ?v2))))))
(assert (forall ((?v0 S3) (?v1 S3) (?v2 S4)) (= (f63 (f64 f65 ?v0) (f63 (f64 f65 ?v1) ?v2)) (f63 (f64 f65 (f37 (f38 ?v0) ?v1)) ?v2))))
(assert (forall ((?v0 S21) (?v1 S21) (?v2 S22)) (= (f50 (f87 f88 ?v0) (f50 (f87 f88 ?v1) ?v2)) (f50 (f87 f88 (f43 (f44 ?v0) ?v1)) ?v2))))
(assert (forall ((?v0 S14) (?v1 S14) (?v2 S15)) (= (f77 (f78 f79 ?v0) (f77 (f78 f79 ?v1) ?v2)) (f77 (f78 f79 (f39 (f40 ?v0) ?v1)) ?v2))))
(assert (forall ((?v0 S18) (?v1 S18) (?v2 S19)) (= (f82 (f83 f84 ?v0) (f82 (f83 f84 ?v1) ?v2)) (f82 (f83 f84 (f41 (f42 ?v0) ?v1)) ?v2))))
(assert (forall ((?v0 S9) (?v1 S9) (?v2 S10)) (= (f89 (f90 f91 ?v0) (f89 (f90 f91 ?v1) ?v2)) (f89 (f90 f91 (f35 (f36 ?v0) ?v1)) ?v2))))
(assert (forall ((?v0 S23) (?v1 S23)) (let ((?v_0 (f53 (f54 f55 ?v0) ?v1))) (= (f53 (f54 f55 ?v_0) ?v1) ?v_0))))
(assert (forall ((?v0 S23) (?v1 S22) (?v2 S38) (?v3 S4)) (= (= (f50 (f51 f52 ?v0) ?v1) (f59 (f60 f61 ?v2) ?v3)) (exists ((?v4 S2) (?v5 S4)) (and (= ?v3 (f63 (f75 f76 ?v4) ?v5)) (and (= ?v0 (f68 ?v2 ?v4)) (= ?v1 (f59 (f60 f61 ?v2) ?v5))))))))
(assert (forall ((?v0 S11) (?v1 S10) (?v2 S68) (?v3 S15)) (= (= (f89 (f92 f93 ?v0) ?v1) (f114 (f115 f116 ?v2) ?v3)) (exists ((?v4 S16) (?v5 S15)) (and (= ?v3 (f77 (f80 f81 ?v4) ?v5)) (and (= ?v0 (f117 ?v2 ?v4)) (= ?v1 (f114 (f115 f116 ?v2) ?v5))))))))
(assert (forall ((?v0 S2) (?v1 S4) (?v2 S71) (?v3 S15)) (= (= (f63 (f75 f76 ?v0) ?v1) (f118 (f119 f120 ?v2) ?v3)) (exists ((?v4 S16) (?v5 S15)) (and (= ?v3 (f77 (f80 f81 ?v4) ?v5)) (and (= ?v0 (f121 ?v2 ?v4)) (= ?v1 (f118 (f119 f120 ?v2) ?v5))))))))
(assert (forall ((?v0 S11) (?v1 S10) (?v2 S74) (?v3 S19)) (= (= (f89 (f92 f93 ?v0) ?v1) (f122 (f123 f124 ?v2) ?v3)) (exists ((?v4 S15) (?v5 S19)) (and (= ?v3 (f82 (f85 f86 ?v4) ?v5)) (and (= ?v0 (f125 ?v2 ?v4)) (= ?v1 (f122 (f123 f124 ?v2) ?v5))))))))
(assert (forall ((?v0 S2) (?v1 S4) (?v2 S77) (?v3 S19)) (= (= (f63 (f75 f76 ?v0) ?v1) (f126 (f127 f128 ?v2) ?v3)) (exists ((?v4 S15) (?v5 S19)) (and (= ?v3 (f82 (f85 f86 ?v4) ?v5)) (and (= ?v0 (f129 ?v2 ?v4)) (= ?v1 (f126 (f127 f128 ?v2) ?v5))))))))
(assert (forall ((?v0 S11) (?v1 S10) (?v2 S80) (?v3 S22)) (= (= (f89 (f92 f93 ?v0) ?v1) (f130 (f131 f132 ?v2) ?v3)) (exists ((?v4 S23) (?v5 S22)) (and (= ?v3 (f50 (f51 f52 ?v4) ?v5)) (and (= ?v0 (f133 ?v2 ?v4)) (= ?v1 (f130 (f131 f132 ?v2) ?v5))))))))
(assert (forall ((?v0 S2) (?v1 S4) (?v2 S83) (?v3 S22)) (= (= (f63 (f75 f76 ?v0) ?v1) (f134 (f135 f136 ?v2) ?v3)) (exists ((?v4 S23) (?v5 S22)) (and (= ?v3 (f50 (f51 f52 ?v4) ?v5)) (and (= ?v0 (f137 ?v2 ?v4)) (= ?v1 (f134 (f135 f136 ?v2) ?v5))))))))
(assert (forall ((?v0 S16) (?v1 S15) (?v2 S53) (?v3 S10)) (= (= (f77 (f80 f81 ?v0) ?v1) (f94 (f95 f96 ?v2) ?v3)) (exists ((?v4 S11) (?v5 S10)) (and (= ?v3 (f89 (f92 f93 ?v4) ?v5)) (and (= ?v0 (f97 ?v2 ?v4)) (= ?v1 (f94 (f95 f96 ?v2) ?v5))))))))
(assert (forall ((?v0 S16) (?v1 S15) (?v2 S56) (?v3 S4)) (= (= (f77 (f80 f81 ?v0) ?v1) (f98 (f99 f100 ?v2) ?v3)) (exists ((?v4 S2) (?v5 S4)) (and (= ?v3 (f63 (f75 f76 ?v4) ?v5)) (and (= ?v0 (f101 ?v2 ?v4)) (= ?v1 (f98 (f99 f100 ?v2) ?v5))))))))
(assert (forall ((?v0 S15) (?v1 S19) (?v2 S59) (?v3 S10)) (= (= (f82 (f85 f86 ?v0) ?v1) (f102 (f103 f104 ?v2) ?v3)) (exists ((?v4 S11) (?v5 S10)) (and (= ?v3 (f89 (f92 f93 ?v4) ?v5)) (and (= ?v0 (f105 ?v2 ?v4)) (= ?v1 (f102 (f103 f104 ?v2) ?v5))))))))
(assert (forall ((?v0 S15) (?v1 S19) (?v2 S62) (?v3 S4)) (= (= (f82 (f85 f86 ?v0) ?v1) (f106 (f107 f108 ?v2) ?v3)) (exists ((?v4 S2) (?v5 S4)) (and (= ?v3 (f63 (f75 f76 ?v4) ?v5)) (and (= ?v0 (f109 ?v2 ?v4)) (= ?v1 (f106 (f107 f108 ?v2) ?v5))))))))
(assert (forall ((?v0 S23) (?v1 S22) (?v2 S65) (?v3 S10)) (= (= (f50 (f51 f52 ?v0) ?v1) (f110 (f111 f112 ?v2) ?v3)) (exists ((?v4 S11) (?v5 S10)) (and (= ?v3 (f89 (f92 f93 ?v4) ?v5)) (and (= ?v0 (f113 ?v2 ?v4)) (= ?v1 (f110 (f111 f112 ?v2) ?v5))))))))
(assert (forall ((?v0 S16) (?v1 S15) (?v2 S86) (?v3 S22)) (= (= (f77 (f80 f81 ?v0) ?v1) (f138 (f139 f140 ?v2) ?v3)) (exists ((?v4 S23) (?v5 S22)) (and (= ?v3 (f50 (f51 f52 ?v4) ?v5)) (and (= ?v0 (f141 ?v2 ?v4)) (= ?v1 (f138 (f139 f140 ?v2) ?v5))))))))
(assert (forall ((?v0 S15) (?v1 S19) (?v2 S89) (?v3 S22)) (= (= (f82 (f85 f86 ?v0) ?v1) (f142 (f143 f144 ?v2) ?v3)) (exists ((?v4 S23) (?v5 S22)) (and (= ?v3 (f50 (f51 f52 ?v4) ?v5)) (and (= ?v0 (f145 ?v2 ?v4)) (= ?v1 (f142 (f143 f144 ?v2) ?v5))))))))
(assert (forall ((?v0 S11) (?v1 S10) (?v2 S92) (?v3 S4)) (= (= (f89 (f92 f93 ?v0) ?v1) (f72 (f146 f147 ?v2) ?v3)) (exists ((?v4 S2) (?v5 S4)) (and (= ?v3 (f63 (f75 f76 ?v4) ?v5)) (and (= ?v0 (f148 ?v2 ?v4)) (= ?v1 (f72 (f146 f147 ?v2) ?v5))))))))
(assert (forall ((?v0 S23) (?v1 S22) (?v2 S94) (?v3 S15)) (= (= (f50 (f51 f52 ?v0) ?v1) (f149 (f150 f151 ?v2) ?v3)) (exists ((?v4 S16) (?v5 S15)) (and (= ?v3 (f77 (f80 f81 ?v4) ?v5)) (and (= ?v0 (f152 ?v2 ?v4)) (= ?v1 (f149 (f150 f151 ?v2) ?v5))))))))
(assert (forall ((?v0 S23) (?v1 S22) (?v2 S97) (?v3 S19)) (= (= (f50 (f51 f52 ?v0) ?v1) (f153 (f154 f155 ?v2) ?v3)) (exists ((?v4 S15) (?v5 S19)) (and (= ?v3 (f82 (f85 f86 ?v4) ?v5)) (and (= ?v0 (f156 ?v2 ?v4)) (= ?v1 (f153 (f154 f155 ?v2) ?v5))))))))
(assert (forall ((?v0 S2) (?v1 S4) (?v2 S100) (?v3 S10)) (= (= (f63 (f75 f76 ?v0) ?v1) (f157 (f158 f159 ?v2) ?v3)) (exists ((?v4 S11) (?v5 S10)) (and (= ?v3 (f89 (f92 f93 ?v4) ?v5)) (and (= ?v0 (f160 ?v2 ?v4)) (= ?v1 (f157 (f158 f159 ?v2) ?v5))))))))
(assert (forall ((?v0 S38) (?v1 S4) (?v2 S23) (?v3 S22)) (= (= (f59 (f60 f61 ?v0) ?v1) (f50 (f51 f52 ?v2) ?v3)) (exists ((?v4 S2) (?v5 S4)) (and (= ?v1 (f63 (f75 f76 ?v4) ?v5)) (and (= (f68 ?v0 ?v4) ?v2) (= (f59 (f60 f61 ?v0) ?v5) ?v3)))))))
(assert (forall ((?v0 S68) (?v1 S15) (?v2 S11) (?v3 S10)) (= (= (f114 (f115 f116 ?v0) ?v1) (f89 (f92 f93 ?v2) ?v3)) (exists ((?v4 S16) (?v5 S15)) (and (= ?v1 (f77 (f80 f81 ?v4) ?v5)) (and (= (f117 ?v0 ?v4) ?v2) (= (f114 (f115 f116 ?v0) ?v5) ?v3)))))))
(assert (forall ((?v0 S71) (?v1 S15) (?v2 S2) (?v3 S4)) (= (= (f118 (f119 f120 ?v0) ?v1) (f63 (f75 f76 ?v2) ?v3)) (exists ((?v4 S16) (?v5 S15)) (and (= ?v1 (f77 (f80 f81 ?v4) ?v5)) (and (= (f121 ?v0 ?v4) ?v2) (= (f118 (f119 f120 ?v0) ?v5) ?v3)))))))
(assert (forall ((?v0 S74) (?v1 S19) (?v2 S11) (?v3 S10)) (= (= (f122 (f123 f124 ?v0) ?v1) (f89 (f92 f93 ?v2) ?v3)) (exists ((?v4 S15) (?v5 S19)) (and (= ?v1 (f82 (f85 f86 ?v4) ?v5)) (and (= (f125 ?v0 ?v4) ?v2) (= (f122 (f123 f124 ?v0) ?v5) ?v3)))))))
(assert (forall ((?v0 S77) (?v1 S19) (?v2 S2) (?v3 S4)) (= (= (f126 (f127 f128 ?v0) ?v1) (f63 (f75 f76 ?v2) ?v3)) (exists ((?v4 S15) (?v5 S19)) (and (= ?v1 (f82 (f85 f86 ?v4) ?v5)) (and (= (f129 ?v0 ?v4) ?v2) (= (f126 (f127 f128 ?v0) ?v5) ?v3)))))))
(assert (forall ((?v0 S80) (?v1 S22) (?v2 S11) (?v3 S10)) (= (= (f130 (f131 f132 ?v0) ?v1) (f89 (f92 f93 ?v2) ?v3)) (exists ((?v4 S23) (?v5 S22)) (and (= ?v1 (f50 (f51 f52 ?v4) ?v5)) (and (= (f133 ?v0 ?v4) ?v2) (= (f130 (f131 f132 ?v0) ?v5) ?v3)))))))
(assert (forall ((?v0 S83) (?v1 S22) (?v2 S2) (?v3 S4)) (= (= (f134 (f135 f136 ?v0) ?v1) (f63 (f75 f76 ?v2) ?v3)) (exists ((?v4 S23) (?v5 S22)) (and (= ?v1 (f50 (f51 f52 ?v4) ?v5)) (and (= (f137 ?v0 ?v4) ?v2) (= (f134 (f135 f136 ?v0) ?v5) ?v3)))))))
(assert (forall ((?v0 S53) (?v1 S10) (?v2 S16) (?v3 S15)) (= (= (f94 (f95 f96 ?v0) ?v1) (f77 (f80 f81 ?v2) ?v3)) (exists ((?v4 S11) (?v5 S10)) (and (= ?v1 (f89 (f92 f93 ?v4) ?v5)) (and (= (f97 ?v0 ?v4) ?v2) (= (f94 (f95 f96 ?v0) ?v5) ?v3)))))))
(assert (forall ((?v0 S56) (?v1 S4) (?v2 S16) (?v3 S15)) (= (= (f98 (f99 f100 ?v0) ?v1) (f77 (f80 f81 ?v2) ?v3)) (exists ((?v4 S2) (?v5 S4)) (and (= ?v1 (f63 (f75 f76 ?v4) ?v5)) (and (= (f101 ?v0 ?v4) ?v2) (= (f98 (f99 f100 ?v0) ?v5) ?v3)))))))
(assert (forall ((?v0 S59) (?v1 S10) (?v2 S15) (?v3 S19)) (= (= (f102 (f103 f104 ?v0) ?v1) (f82 (f85 f86 ?v2) ?v3)) (exists ((?v4 S11) (?v5 S10)) (and (= ?v1 (f89 (f92 f93 ?v4) ?v5)) (and (= (f105 ?v0 ?v4) ?v2) (= (f102 (f103 f104 ?v0) ?v5) ?v3)))))))
(assert (forall ((?v0 S62) (?v1 S4) (?v2 S15) (?v3 S19)) (= (= (f106 (f107 f108 ?v0) ?v1) (f82 (f85 f86 ?v2) ?v3)) (exists ((?v4 S2) (?v5 S4)) (and (= ?v1 (f63 (f75 f76 ?v4) ?v5)) (and (= (f109 ?v0 ?v4) ?v2) (= (f106 (f107 f108 ?v0) ?v5) ?v3)))))))
(assert (forall ((?v0 S65) (?v1 S10) (?v2 S23) (?v3 S22)) (= (= (f110 (f111 f112 ?v0) ?v1) (f50 (f51 f52 ?v2) ?v3)) (exists ((?v4 S11) (?v5 S10)) (and (= ?v1 (f89 (f92 f93 ?v4) ?v5)) (and (= (f113 ?v0 ?v4) ?v2) (= (f110 (f111 f112 ?v0) ?v5) ?v3)))))))
(assert (forall ((?v0 S86) (?v1 S22) (?v2 S16) (?v3 S15)) (= (= (f138 (f139 f140 ?v0) ?v1) (f77 (f80 f81 ?v2) ?v3)) (exists ((?v4 S23) (?v5 S22)) (and (= ?v1 (f50 (f51 f52 ?v4) ?v5)) (and (= (f141 ?v0 ?v4) ?v2) (= (f138 (f139 f140 ?v0) ?v5) ?v3)))))))
(assert (forall ((?v0 S89) (?v1 S22) (?v2 S15) (?v3 S19)) (= (= (f142 (f143 f144 ?v0) ?v1) (f82 (f85 f86 ?v2) ?v3)) (exists ((?v4 S23) (?v5 S22)) (and (= ?v1 (f50 (f51 f52 ?v4) ?v5)) (and (= (f145 ?v0 ?v4) ?v2) (= (f142 (f143 f144 ?v0) ?v5) ?v3)))))))
(assert (forall ((?v0 S92) (?v1 S4) (?v2 S11) (?v3 S10)) (= (= (f72 (f146 f147 ?v0) ?v1) (f89 (f92 f93 ?v2) ?v3)) (exists ((?v4 S2) (?v5 S4)) (and (= ?v1 (f63 (f75 f76 ?v4) ?v5)) (and (= (f148 ?v0 ?v4) ?v2) (= (f72 (f146 f147 ?v0) ?v5) ?v3)))))))
(assert (forall ((?v0 S94) (?v1 S15) (?v2 S23) (?v3 S22)) (= (= (f149 (f150 f151 ?v0) ?v1) (f50 (f51 f52 ?v2) ?v3)) (exists ((?v4 S16) (?v5 S15)) (and (= ?v1 (f77 (f80 f81 ?v4) ?v5)) (and (= (f152 ?v0 ?v4) ?v2) (= (f149 (f150 f151 ?v0) ?v5) ?v3)))))))
(assert (forall ((?v0 S97) (?v1 S19) (?v2 S23) (?v3 S22)) (= (= (f153 (f154 f155 ?v0) ?v1) (f50 (f51 f52 ?v2) ?v3)) (exists ((?v4 S15) (?v5 S19)) (and (= ?v1 (f82 (f85 f86 ?v4) ?v5)) (and (= (f156 ?v0 ?v4) ?v2) (= (f153 (f154 f155 ?v0) ?v5) ?v3)))))))
(assert (forall ((?v0 S100) (?v1 S10) (?v2 S2) (?v3 S4)) (= (= (f157 (f158 f159 ?v0) ?v1) (f63 (f75 f76 ?v2) ?v3)) (exists ((?v4 S11) (?v5 S10)) (and (= ?v1 (f89 (f92 f93 ?v4) ?v5)) (and (= (f160 ?v0 ?v4) ?v2) (= (f157 (f158 f159 ?v0) ?v5) ?v3)))))))
(assert (forall ((?v0 S15) (?v1 S16)) (not (= ?v0 (f77 (f80 f81 ?v1) ?v0)))))
(assert (forall ((?v0 S19) (?v1 S15)) (not (= ?v0 (f82 (f85 f86 ?v1) ?v0)))))
(assert (forall ((?v0 S22) (?v1 S23)) (not (= ?v0 (f50 (f51 f52 ?v1) ?v0)))))
(assert (forall ((?v0 S10) (?v1 S11)) (not (= ?v0 (f89 (f92 f93 ?v1) ?v0)))))
(assert (forall ((?v0 S4) (?v1 S2)) (not (= ?v0 (f63 (f75 f76 ?v1) ?v0)))))
(assert (forall ((?v0 S23)) (= (f53 (f54 f55 ?v0) f70) f71)))
(assert (forall ((?v0 S3) (?v1 S4)) (= (= (f63 (f64 f65 ?v0) ?v1) f161) (forall ((?v2 S2)) (=> (= (f5 ?v2 (f6 ?v1)) f1) (not (= (f3 ?v0 ?v2) f1)))))))
(assert (forall ((?v0 S9) (?v1 S10)) (= (= (f89 (f90 f91 ?v0) ?v1) f74) (forall ((?v2 S11)) (=> (= (f16 ?v2 (f17 ?v1)) f1) (not (= (f13 ?v0 ?v2) f1)))))))
(assert (forall ((?v0 S18) (?v1 S19)) (= (= (f82 (f83 f84 ?v0) ?v1) f162) (forall ((?v2 S15)) (=> (= (f28 ?v2 (f29 ?v1)) f1) (not (= (f25 ?v0 ?v2) f1)))))))
(assert (forall ((?v0 S14) (?v1 S15)) (= (= (f77 (f78 f79 ?v0) ?v1) f163) (forall ((?v2 S16)) (=> (= (f23 ?v2 (f24 ?v1)) f1) (not (= (f20 ?v0 ?v2) f1)))))))
(assert (forall ((?v0 S21) (?v1 S22)) (= (= (f50 (f87 f88 ?v0) ?v1) f164) (forall ((?v2 S23)) (=> (= (f33 ?v2 (f34 ?v1)) f1) (not (= (f30 ?v0 ?v2) f1)))))))
(assert (forall ((?v0 S11) (?v1 S10)) (not (= (f89 (f92 f93 ?v0) ?v1) f74))))
(assert (forall ((?v0 S15) (?v1 S19)) (not (= (f82 (f85 f86 ?v0) ?v1) f162))))
(assert (forall ((?v0 S16) (?v1 S15)) (not (= (f77 (f80 f81 ?v0) ?v1) f163))))
(assert (forall ((?v0 S23) (?v1 S22)) (not (= (f50 (f51 f52 ?v0) ?v1) f164))))
(assert (forall ((?v0 S2) (?v1 S4)) (not (= (f63 (f75 f76 ?v0) ?v1) f161))))
(assert (forall ((?v0 S11) (?v1 S10)) (not (= f74 (f89 (f92 f93 ?v0) ?v1)))))
(assert (forall ((?v0 S15) (?v1 S19)) (not (= f162 (f82 (f85 f86 ?v0) ?v1)))))
(assert (forall ((?v0 S16) (?v1 S15)) (not (= f163 (f77 (f80 f81 ?v0) ?v1)))))
(assert (forall ((?v0 S23) (?v1 S22)) (not (= f164 (f50 (f51 f52 ?v0) ?v1)))))
(assert (forall ((?v0 S2) (?v1 S4)) (not (= f161 (f63 (f75 f76 ?v0) ?v1)))))
(assert (forall ((?v0 S38) (?v1 S4)) (= (= (f59 (f60 f61 ?v0) ?v1) f164) (= ?v1 f161))))
(assert (forall ((?v0 S65) (?v1 S10)) (= (= (f110 (f111 f112 ?v0) ?v1) f164) (= ?v1 f74))))
(assert (forall ((?v0 S100) (?v1 S10)) (= (= (f157 (f158 f159 ?v0) ?v1) f161) (= ?v1 f74))))
(assert (forall ((?v0 S97) (?v1 S19)) (= (= (f153 (f154 f155 ?v0) ?v1) f164) (= ?v1 f162))))
(assert (forall ((?v0 S77) (?v1 S19)) (= (= (f126 (f127 f128 ?v0) ?v1) f161) (= ?v1 f162))))
(assert (forall ((?v0 S94) (?v1 S15)) (= (= (f149 (f150 f151 ?v0) ?v1) f164) (= ?v1 f163))))
(assert (forall ((?v0 S71) (?v1 S15)) (= (= (f118 (f119 f120 ?v0) ?v1) f161) (= ?v1 f163))))
(assert (forall ((?v0 S80) (?v1 S22)) (= (= (f130 (f131 f132 ?v0) ?v1) f74) (= ?v1 f164))))
(assert (forall ((?v0 S92) (?v1 S4)) (= (= (f72 (f146 f147 ?v0) ?v1) f74) (= ?v1 f161))))
(assert (forall ((?v0 S89) (?v1 S22)) (= (= (f142 (f143 f144 ?v0) ?v1) f162) (= ?v1 f164))))
(assert (forall ((?v0 S62) (?v1 S4)) (= (= (f106 (f107 f108 ?v0) ?v1) f162) (= ?v1 f161))))
(assert (forall ((?v0 S86) (?v1 S22)) (= (= (f138 (f139 f140 ?v0) ?v1) f163) (= ?v1 f164))))
(assert (forall ((?v0 S56) (?v1 S4)) (= (= (f98 (f99 f100 ?v0) ?v1) f163) (= ?v1 f161))))
(assert (forall ((?v0 S59) (?v1 S10)) (= (= (f102 (f103 f104 ?v0) ?v1) f162) (= ?v1 f74))))
(assert (forall ((?v0 S53) (?v1 S10)) (= (= (f94 (f95 f96 ?v0) ?v1) f163) (= ?v1 f74))))
(assert (forall ((?v0 S83) (?v1 S22)) (= (= (f134 (f135 f136 ?v0) ?v1) f161) (= ?v1 f164))))
(assert (forall ((?v0 S74) (?v1 S19)) (= (= (f122 (f123 f124 ?v0) ?v1) f74) (= ?v1 f162))))
(assert (forall ((?v0 S68) (?v1 S15)) (= (= (f114 (f115 f116 ?v0) ?v1) f74) (= ?v1 f163))))
(assert (forall ((?v0 S38)) (= (f59 (f60 f61 ?v0) f161) f164)))
(assert (forall ((?v0 S80)) (= (f130 (f131 f132 ?v0) f164) f74)))
(assert (forall ((?v0 S92)) (= (f72 (f146 f147 ?v0) f161) f74)))
(assert (forall ((?v0 S89)) (= (f142 (f143 f144 ?v0) f164) f162)))
(assert (forall ((?v0 S62)) (= (f106 (f107 f108 ?v0) f161) f162)))
(assert (forall ((?v0 S86)) (= (f138 (f139 f140 ?v0) f164) f163)))
(assert (forall ((?v0 S56)) (= (f98 (f99 f100 ?v0) f161) f163)))
(assert (forall ((?v0 S65)) (= (f110 (f111 f112 ?v0) f74) f164)))
(assert (forall ((?v0 S100)) (= (f157 (f158 f159 ?v0) f74) f161)))
(assert (forall ((?v0 S97)) (= (f153 (f154 f155 ?v0) f162) f164)))
(assert (forall ((?v0 S77)) (= (f126 (f127 f128 ?v0) f162) f161)))
(assert (forall ((?v0 S94)) (= (f149 (f150 f151 ?v0) f163) f164)))
(assert (forall ((?v0 S71)) (= (f118 (f119 f120 ?v0) f163) f161)))
(assert (forall ((?v0 S59)) (= (f102 (f103 f104 ?v0) f74) f162)))
(assert (forall ((?v0 S53)) (= (f94 (f95 f96 ?v0) f74) f163)))
(assert (forall ((?v0 S83)) (= (f134 (f135 f136 ?v0) f164) f161)))
(assert (forall ((?v0 S74)) (= (f122 (f123 f124 ?v0) f162) f74)))
(assert (forall ((?v0 S68)) (= (f114 (f115 f116 ?v0) f163) f74)))
(assert (forall ((?v0 S38) (?v1 S4)) (= (= f164 (f59 (f60 f61 ?v0) ?v1)) (= ?v1 f161))))
(assert (forall ((?v0 S65) (?v1 S10)) (= (= f164 (f110 (f111 f112 ?v0) ?v1)) (= ?v1 f74))))
(assert (forall ((?v0 S100) (?v1 S10)) (= (= f161 (f157 (f158 f159 ?v0) ?v1)) (= ?v1 f74))))
(assert (forall ((?v0 S97) (?v1 S19)) (= (= f164 (f153 (f154 f155 ?v0) ?v1)) (= ?v1 f162))))
(assert (forall ((?v0 S77) (?v1 S19)) (= (= f161 (f126 (f127 f128 ?v0) ?v1)) (= ?v1 f162))))
(assert (forall ((?v0 S94) (?v1 S15)) (= (= f164 (f149 (f150 f151 ?v0) ?v1)) (= ?v1 f163))))
(assert (forall ((?v0 S71) (?v1 S15)) (= (= f161 (f118 (f119 f120 ?v0) ?v1)) (= ?v1 f163))))
(assert (forall ((?v0 S80) (?v1 S22)) (= (= f74 (f130 (f131 f132 ?v0) ?v1)) (= ?v1 f164))))
(assert (forall ((?v0 S92) (?v1 S4)) (= (= f74 (f72 (f146 f147 ?v0) ?v1)) (= ?v1 f161))))
(assert (forall ((?v0 S89) (?v1 S22)) (= (= f162 (f142 (f143 f144 ?v0) ?v1)) (= ?v1 f164))))
(assert (forall ((?v0 S62) (?v1 S4)) (= (= f162 (f106 (f107 f108 ?v0) ?v1)) (= ?v1 f161))))
(assert (forall ((?v0 S86) (?v1 S22)) (= (= f163 (f138 (f139 f140 ?v0) ?v1)) (= ?v1 f164))))
(assert (forall ((?v0 S56) (?v1 S4)) (= (= f163 (f98 (f99 f100 ?v0) ?v1)) (= ?v1 f161))))
(assert (forall ((?v0 S59) (?v1 S10)) (= (= f162 (f102 (f103 f104 ?v0) ?v1)) (= ?v1 f74))))
(assert (forall ((?v0 S53) (?v1 S10)) (= (= f163 (f94 (f95 f96 ?v0) ?v1)) (= ?v1 f74))))
(assert (forall ((?v0 S83) (?v1 S22)) (= (= f161 (f134 (f135 f136 ?v0) ?v1)) (= ?v1 f164))))
(assert (forall ((?v0 S74) (?v1 S19)) (= (= f74 (f122 (f123 f124 ?v0) ?v1)) (= ?v1 f162))))
(assert (forall ((?v0 S68) (?v1 S15)) (= (= f74 (f114 (f115 f116 ?v0) ?v1)) (= ?v1 f163))))
(assert (forall ((?v0 S23)) (= (f53 (f54 f55 ?v0) ?v0) f71)))
(assert (forall ((?v0 S23)) (= (f53 (f54 f55 ?v0) f71) ?v0)))
(assert (forall ((?v0 S23)) (= (f53 (f54 f55 f71) ?v0) f71)))
(assert (forall ((?v0 S3)) (= (f63 (f64 f65 ?v0) f161) f161)))
(assert (forall ((?v0 S9)) (= (f89 (f90 f91 ?v0) f74) f74)))
(assert (forall ((?v0 S18)) (= (f82 (f83 f84 ?v0) f162) f162)))
(assert (forall ((?v0 S14)) (= (f77 (f78 f79 ?v0) f163) f163)))
(assert (forall ((?v0 S21)) (= (f50 (f87 f88 ?v0) f164) f164)))
(assert (forall ((?v0 S23)) (= (f53 (f54 f55 ?v0) ?v0) f71)))
(assert (forall ((?v0 S23)) (= (f53 (f54 f55 f71) ?v0) f71)))
(assert (forall ((?v0 S2) (?v1 S2) (?v2 S4)) (=> (= (f5 ?v0 (f6 (f63 (f75 f76 ?v1) ?v2))) f1) (or (= ?v0 ?v1) (= (f5 ?v0 (f6 ?v2)) f1)))))
(assert (forall ((?v0 S16) (?v1 S16) (?v2 S15)) (=> (= (f23 ?v0 (f24 (f77 (f80 f81 ?v1) ?v2))) f1) (or (= ?v0 ?v1) (= (f23 ?v0 (f24 ?v2)) f1)))))
(assert (forall ((?v0 S15) (?v1 S15) (?v2 S19)) (=> (= (f28 ?v0 (f29 (f82 (f85 f86 ?v1) ?v2))) f1) (or (= ?v0 ?v1) (= (f28 ?v0 (f29 ?v2)) f1)))))
(assert (forall ((?v0 S23) (?v1 S23) (?v2 S22)) (=> (= (f33 ?v0 (f34 (f50 (f51 f52 ?v1) ?v2))) f1) (or (= ?v0 ?v1) (= (f33 ?v0 (f34 ?v2)) f1)))))
(assert (forall ((?v0 S11) (?v1 S11) (?v2 S10)) (=> (= (f16 ?v0 (f17 (f89 (f92 f93 ?v1) ?v2))) f1) (or (= ?v0 ?v1) (= (f16 ?v0 (f17 ?v2)) f1)))))
(assert (forall ((?v0 S38) (?v1 S4) (?v2 S38)) (= (= (f59 (f60 f61 ?v0) ?v1) (f59 (f60 f61 ?v2) ?v1)) (forall ((?v3 S2)) (=> (= (f5 ?v3 (f6 ?v1)) f1) (= (f68 ?v0 ?v3) (f68 ?v2 ?v3)))))))
(assert (forall ((?v0 S56) (?v1 S4) (?v2 S56)) (= (= (f98 (f99 f100 ?v0) ?v1) (f98 (f99 f100 ?v2) ?v1)) (forall ((?v3 S2)) (=> (= (f5 ?v3 (f6 ?v1)) f1) (= (f101 ?v0 ?v3) (f101 ?v2 ?v3)))))))
(assert (forall ((?v0 S62) (?v1 S4) (?v2 S62)) (= (= (f106 (f107 f108 ?v0) ?v1) (f106 (f107 f108 ?v2) ?v1)) (forall ((?v3 S2)) (=> (= (f5 ?v3 (f6 ?v1)) f1) (= (f109 ?v0 ?v3) (f109 ?v2 ?v3)))))))
(assert (forall ((?v0 S92) (?v1 S4) (?v2 S92)) (= (= (f72 (f146 f147 ?v0) ?v1) (f72 (f146 f147 ?v2) ?v1)) (forall ((?v3 S2)) (=> (= (f5 ?v3 (f6 ?v1)) f1) (= (f148 ?v0 ?v3) (f148 ?v2 ?v3)))))))
(assert (forall ((?v0 S100) (?v1 S10) (?v2 S100)) (= (= (f157 (f158 f159 ?v0) ?v1) (f157 (f158 f159 ?v2) ?v1)) (forall ((?v3 S11)) (=> (= (f16 ?v3 (f17 ?v1)) f1) (= (f160 ?v0 ?v3) (f160 ?v2 ?v3)))))))
(assert (forall ((?v0 S65) (?v1 S10) (?v2 S65)) (= (= (f110 (f111 f112 ?v0) ?v1) (f110 (f111 f112 ?v2) ?v1)) (forall ((?v3 S11)) (=> (= (f16 ?v3 (f17 ?v1)) f1) (= (f113 ?v0 ?v3) (f113 ?v2 ?v3)))))))
(assert (forall ((?v0 S59) (?v1 S10) (?v2 S59)) (= (= (f102 (f103 f104 ?v0) ?v1) (f102 (f103 f104 ?v2) ?v1)) (forall ((?v3 S11)) (=> (= (f16 ?v3 (f17 ?v1)) f1) (= (f105 ?v0 ?v3) (f105 ?v2 ?v3)))))))
(assert (forall ((?v0 S53) (?v1 S10) (?v2 S53)) (= (= (f94 (f95 f96 ?v0) ?v1) (f94 (f95 f96 ?v2) ?v1)) (forall ((?v3 S11)) (=> (= (f16 ?v3 (f17 ?v1)) f1) (= (f97 ?v0 ?v3) (f97 ?v2 ?v3)))))))
(assert (forall ((?v0 S86) (?v1 S22) (?v2 S86)) (= (= (f138 (f139 f140 ?v0) ?v1) (f138 (f139 f140 ?v2) ?v1)) (forall ((?v3 S23)) (=> (= (f33 ?v3 (f34 ?v1)) f1) (= (f141 ?v0 ?v3) (f141 ?v2 ?v3)))))))
(assert (forall ((?v0 S89) (?v1 S22) (?v2 S89)) (= (= (f142 (f143 f144 ?v0) ?v1) (f142 (f143 f144 ?v2) ?v1)) (forall ((?v3 S23)) (=> (= (f33 ?v3 (f34 ?v1)) f1) (= (f145 ?v0 ?v3) (f145 ?v2 ?v3)))))))
(assert (forall ((?v0 S80) (?v1 S22) (?v2 S80)) (= (= (f130 (f131 f132 ?v0) ?v1) (f130 (f131 f132 ?v2) ?v1)) (forall ((?v3 S23)) (=> (= (f33 ?v3 (f34 ?v1)) f1) (= (f133 ?v0 ?v3) (f133 ?v2 ?v3)))))))
(assert (forall ((?v0 S83) (?v1 S22) (?v2 S83)) (= (= (f134 (f135 f136 ?v0) ?v1) (f134 (f135 f136 ?v2) ?v1)) (forall ((?v3 S23)) (=> (= (f33 ?v3 (f34 ?v1)) f1) (= (f137 ?v0 ?v3) (f137 ?v2 ?v3)))))))
(assert (forall ((?v0 S77) (?v1 S19) (?v2 S77)) (= (= (f126 (f127 f128 ?v0) ?v1) (f126 (f127 f128 ?v2) ?v1)) (forall ((?v3 S15)) (=> (= (f28 ?v3 (f29 ?v1)) f1) (= (f129 ?v0 ?v3) (f129 ?v2 ?v3)))))))
(assert (forall ((?v0 S97) (?v1 S19) (?v2 S97)) (= (= (f153 (f154 f155 ?v0) ?v1) (f153 (f154 f155 ?v2) ?v1)) (forall ((?v3 S15)) (=> (= (f28 ?v3 (f29 ?v1)) f1) (= (f156 ?v0 ?v3) (f156 ?v2 ?v3)))))))
(assert (forall ((?v0 S74) (?v1 S19) (?v2 S74)) (= (= (f122 (f123 f124 ?v0) ?v1) (f122 (f123 f124 ?v2) ?v1)) (forall ((?v3 S15)) (=> (= (f28 ?v3 (f29 ?v1)) f1) (= (f125 ?v0 ?v3) (f125 ?v2 ?v3)))))))
(assert (forall ((?v0 S71) (?v1 S15) (?v2 S71)) (= (= (f118 (f119 f120 ?v0) ?v1) (f118 (f119 f120 ?v2) ?v1)) (forall ((?v3 S16)) (=> (= (f23 ?v3 (f24 ?v1)) f1) (= (f121 ?v0 ?v3) (f121 ?v2 ?v3)))))))
(assert (forall ((?v0 S94) (?v1 S15) (?v2 S94)) (= (= (f149 (f150 f151 ?v0) ?v1) (f149 (f150 f151 ?v2) ?v1)) (forall ((?v3 S16)) (=> (= (f23 ?v3 (f24 ?v1)) f1) (= (f152 ?v0 ?v3) (f152 ?v2 ?v3)))))))
(assert (forall ((?v0 S68) (?v1 S15) (?v2 S68)) (= (= (f114 (f115 f116 ?v0) ?v1) (f114 (f115 f116 ?v2) ?v1)) (forall ((?v3 S16)) (=> (= (f23 ?v3 (f24 ?v1)) f1) (= (f117 ?v0 ?v3) (f117 ?v2 ?v3)))))))
(assert (forall ((?v0 S3) (?v1 S4)) (= (= (f63 (f64 f65 ?v0) ?v1) ?v1) (forall ((?v2 S2)) (=> (= (f5 ?v2 (f6 ?v1)) f1) (= (f3 ?v0 ?v2) f1))))))
(assert (forall ((?v0 S9) (?v1 S10)) (= (= (f89 (f90 f91 ?v0) ?v1) ?v1) (forall ((?v2 S11)) (=> (= (f16 ?v2 (f17 ?v1)) f1) (= (f13 ?v0 ?v2) f1))))))
(assert (forall ((?v0 S21) (?v1 S22)) (= (= (f50 (f87 f88 ?v0) ?v1) ?v1) (forall ((?v2 S23)) (=> (= (f33 ?v2 (f34 ?v1)) f1) (= (f30 ?v0 ?v2) f1))))))
(assert (forall ((?v0 S18) (?v1 S19)) (= (= (f82 (f83 f84 ?v0) ?v1) ?v1) (forall ((?v2 S15)) (=> (= (f28 ?v2 (f29 ?v1)) f1) (= (f25 ?v0 ?v2) f1))))))
(assert (forall ((?v0 S14) (?v1 S15)) (= (= (f77 (f78 f79 ?v0) ?v1) ?v1) (forall ((?v2 S16)) (=> (= (f23 ?v2 (f24 ?v1)) f1) (= (f20 ?v0 ?v2) f1))))))
(assert (forall ((?v0 S3) (?v1 S4)) (= (f6 (f63 (f64 f65 ?v0) ?v1)) (f67 (f18 (f19 ?v0) ?v1)))))
(assert (forall ((?v0 S9) (?v1 S10)) (= (f17 (f89 (f90 f91 ?v0) ?v1)) (f165 (f14 (f15 ?v0) ?v1)))))
(assert (forall ((?v0 S21) (?v1 S22)) (= (f34 (f50 (f87 f88 ?v0) ?v1)) (f166 (f31 (f32 ?v0) ?v1)))))
(assert (forall ((?v0 S18) (?v1 S19)) (= (f29 (f82 (f83 f84 ?v0) ?v1)) (f167 (f26 (f27 ?v0) ?v1)))))
(assert (forall ((?v0 S14) (?v1 S15)) (= (f24 (f77 (f78 f79 ?v0) ?v1)) (f168 (f21 (f22 ?v0) ?v1)))))
(assert (forall ((?v0 S16) (?v1 S15) (?v2 S16) (?v3 S15)) (= (= (f77 (f80 f81 ?v0) ?v1) (f77 (f80 f81 ?v2) ?v3)) (and (= ?v0 ?v2) (= ?v1 ?v3)))))
(assert (forall ((?v0 S15) (?v1 S19) (?v2 S15) (?v3 S19)) (= (= (f82 (f85 f86 ?v0) ?v1) (f82 (f85 f86 ?v2) ?v3)) (and (= ?v0 ?v2) (= ?v1 ?v3)))))
(assert (forall ((?v0 S23) (?v1 S22) (?v2 S23) (?v3 S22)) (= (= (f50 (f51 f52 ?v0) ?v1) (f50 (f51 f52 ?v2) ?v3)) (and (= ?v0 ?v2) (= ?v1 ?v3)))))
(assert (forall ((?v0 S11) (?v1 S10) (?v2 S11) (?v3 S10)) (= (= (f89 (f92 f93 ?v0) ?v1) (f89 (f92 f93 ?v2) ?v3)) (and (= ?v0 ?v2) (= ?v1 ?v3)))))
(assert (forall ((?v0 S2) (?v1 S4) (?v2 S2) (?v3 S4)) (= (= (f63 (f75 f76 ?v0) ?v1) (f63 (f75 f76 ?v2) ?v3)) (and (= ?v0 ?v2) (= ?v1 ?v3)))))
(check-sat)
(exit)
